[2026-03-23T16:09:10.299Z] Pipeline "set_ds_1_ds_1_s001_g001" → 2026_03_23_16_09_10_set_ds_1_ds_1_s001_g001_max.sol
Set parameter WLSAccessID
Set parameter WLSSecret
Set parameter LicenseID to value 2792458
Set parameter LogFile to value "gurobi.log"
Using license file /root/gurobi.lic
Academic license 2792458 - for non-commercial use only - registered to an___@studenti.unipg.it

Gurobi Optimizer version 13.0.1 build v13.0.1rc0 (linux64 - "Ubuntu 24.04.4 LTS")
Copyright (c) 2026, Gurobi Optimization, LLC

Warning: Duplicate section found (read 'binary') - Is a variable name equal to an LP file format keyword?
Warning: Duplicate section found (read 'binary') - Is a variable name equal to an LP file format keyword?
Warning: Duplicate section found (read 'binary') - Is a variable name equal to an LP file format keyword?
Warning: Duplicate section found (read 'binary') - Is a variable name equal to an LP file format keyword?
Warning: Duplicate section found (read 'binary') - Is a variable name equal to an LP file format keyword?
Warning: Duplicate section found (read 'binary') - Is a variable name equal to an LP file format keyword?
Warning: Duplicate section found (read 'binary') - Is a variable name equal to an LP file format keyword?
Warning: Duplicate section found (read 'binary') - Is a variable name equal to an LP file format keyword?
Warning: Duplicate section found (read 'binary') - Is a variable name equal to an LP file format keyword?
Warning: Duplicate section found (read 'binary') - Is a variable name equal to an LP file format keyword?
Warning: Further warnings of this type will be omitted.
Read LP format model from file /root/bgw/data/uploads/2026_03_23_16_09_10_set_ds_1_ds_1_s001_g001_max.lp
Reading time = 0.00 seconds
: 904 rows, 160 columns, 2376 nonzeros

Using Gurobi shared library /opt/gurobi1301/linux64/lib/libgurobi.so.13.0.1

CPU model: AMD EPYC-Genoa Processor, instruction set [SSE2|AVX|AVX2|AVX512]
Thread count: 16 physical cores, 16 logical processors, using up to 16 threads

Academic license 2792458 - for non-commercial use only - registered to an___@studenti.unipg.it
Optimize a model with 904 rows, 160 columns and 2376 nonzeros (Max)
Model fingerprint: 0x21ccb867
Model has 43 linear objective coefficients
Variable types: 54 continuous, 106 integer (106 binary)
Coefficient statistics:
  Matrix range     [1e+00, 1e+01]
  Objective range  [1e+00, 1e+00]
  Bounds range     [1e+00, 1e+00]
  RHS range        [1e+00, 1e+01]

Found heuristic solution: objective 43.0000000
Presolve removed 512 rows and 69 columns
Presolve time: 0.00s
Presolved: 392 rows, 91 columns, 1256 nonzeros
Variable types: 0 continuous, 91 integer (81 binary)
Found heuristic solution: objective 66.0000000

Root relaxation: objective 2.250000e+02, 100 iterations, 0.00 seconds (0.00 work units)

    Nodes    |    Current Node    |     Objective Bounds      |     Work
 Expl Unexpl |  Obj  Depth IntInf | Incumbent    BestBd   Gap | It/Node Time

     0     0  225.00000    0   49   66.00000  225.00000   241%     -    0s
H    0     0                      71.0000000  225.00000   217%     -    0s
H    0     0                      86.0000000  225.00000   162%     -    0s
H    0     0                      89.0000000  225.00000   153%     -    0s
H    0     0                     102.0000000  225.00000   121%     -    0s
     0     0  225.00000    0   52  102.00000  225.00000   121%     -    0s
     0     0  225.00000    0   54  102.00000  225.00000   121%     -    0s
     0     0  225.00000    0   50  102.00000  225.00000   121%     -    0s
H    0     0                     103.0000000  225.00000   118%     -    0s
     0     0  225.00000    0   52  103.00000  225.00000   118%     -    0s
     0     0  225.00000    0   50  103.00000  225.00000   118%     -    0s
H    0     0                     104.0000000  225.00000   116%     -    0s
     0     0  225.00000    0   52  104.00000  225.00000   116%     -    0s
     0     0  225.00000    0   52  104.00000  225.00000   116%     -    0s
H    0     0                     108.0000000  225.00000   108%     -    0s
     0     0  225.00000    0   53  108.00000  225.00000   108%     -    0s
     0     0  225.00000    0   51  108.00000  225.00000   108%     -    0s
     0     0  225.00000    0   51  108.00000  225.00000   108%     -    0s
     0     0  225.00000    0   52  108.00000  225.00000   108%     -    0s
     0     0  225.00000    0   44  108.00000  225.00000   108%     -    0s
     0     0  223.00000    0   53  108.00000  223.00000   106%     -    0s
     0     0  223.00000    0   44  108.00000  223.00000   106%     -    0s
     0     0  221.03704    0   44  108.00000  221.03704   105%     -    0s
     0     0  221.03704    0   44  108.00000  221.03704   105%     -    0s
     0     2  221.03704    0   44  108.00000  221.03704   105%     -    0s
H   26    25                     109.0000000  221.03704   103%  46.0    0s
H  392   307                     114.0000000  221.03704  93.9%  23.2    0s

Cutting planes:
  Gomory: 1
  Cover: 2
  Flow cover: 1
  Inf proof: 2
  Zero half: 1

Explored 86599 nodes (1127561 simplex iterations) in 4.77 seconds (4.00 work units)
Thread count was 16 (of 16 available processors)

Solution count 10: 114 109 108 ... 66

Optimal solution found (tolerance 1.00e-04)
Best objective 1.140000000000e+02, best bound 1.140000000000e+02, gap 0.0000%

Wrote result file '/root/bgw/data/results/2026_03_23_16_09_10_set_ds_1_ds_1_s001_g001_max.sol'

